70
1 0 95
2 0 77
2 1 93
3 0 35
3 1 4
3 2 95
4 0 4
4 1 107
4 2 79
4 3 97
5 0 34
5 1 53
5 2 110
5 3 87
5 4 84
6 0 54
6 1 59
6 2 4
6 3 44
6 4 35
6 5 118
7 0 27
7 1 30
7 2 29
7 3 111
7 4 10
7 5 76
7 6 104
8 0 63
8 1 36
8 2 71
8 3 22
8 4 17
8 5 74
8 6 52
8 7 39
9 0 16
9 1 83
9 2 13
9 3 68
9 4 96
9 5 42
9 6 16
9 7 108
9 8 38
10 0 109
10 1 53
10 2 80
10 3 5
10 4 82
10 5 20
10 6 97
10 7 63
10 8 119
10 9 48
11 0 82
11 1 10
11 2 18
11 3 35
11 4 91
11 5 109
11 6 42
11 7 21
11 8 45
11 9 102
11 10 40
12 0 59
12 1 55
12 2 59
12 3 37
12 4 75
12 5 2
12 6 26
12 7 71
12 8 20
12 9 70
12 10 16
12 11 87
13 0 113
13 1 11
13 2 43
13 3 31
13 4 119
13 5 99
13 6 98
13 7 39
13 8 37
13 9 36
13 10 77
13 11 85
13 12 116
14 0 54
14 1 97
14 2 15
14 3 1
14 4 33
14 5 73
14 6 94
14 7 24
14 8 105
14 9 12
14 10 65
14 11 61
14 12 75
14 13 67
15 0 20
15 1 108
15 2 89
15 3 87
15 4 72
15 5 113
15 6 83
15 7 24
15 8 15
15 9 6
15 10 2
15 11 47
15 12 104
15 13 75
15 14 77
16 0 104
16 1 16
16 2 37
16 3 79
16 4 111
16 5 48
16 6 120
16 7 31
16 8 103
16 9 112
16 10 73
16 11 26
16 12 12
16 13 57
16 14 58
16 15 9
17 0 39
17 1 52
17 2 119
17 3 6
17 4 26
17 5 47
17 6 102
17 7 25
17 8 33
17 9 8
17 10 9
17 11 57
17 12 14
17 13 108
17 14 67
17 15 59
17 16 9
18 0 116
18 1 99
18 2 57
18 3 111
18 4 100
18 5 54
18 6 51
18 7 20
18 8 74
18 9 117
18 10 57
18 11 25
18 12 42
18 13 67
18 14 32
18 15 31
18 16 42
18 17 77
19 0 61
19 1 109
19 2 37
19 3 27
19 4 9
19 5 76
19 6 25
19 7 83
19 8 66
19 9 78
19 10 38
19 11 29
19 12 101
19 13 4
19 14 98
19 15 35
19 16 34
19 17 101
19 18 110
20 0 57
20 1 61
20 2 81
20 3 59
20 4 18
20 5 104
20 6 15
20 7 49
20 8 48
20 9 26
20 10 90
20 11 46
20 12 3
20 13 39
20 14 82
20 15 97
20 16 11
20 17 39
20 18 10
20 19 112
21 0 101
21 1 100
21 2 100
21 3 55
21 4 24
21 5 86
21 6 45
21 7 30
21 8 14
21 9 74
21 10 59
21 11 99
21 12 48
21 13 97
21 14 56
21 15 104
21 16 2
21 17 97
21 18 111
21 19 102
21 20 87
22 0 114
22 1 29
22 2 53
22 3 81
22 4 105
22 5 48
22 6 62
22 7 49
22 8 59
22 9 71
22 10 90
22 11 22
22 12 3
22 13 11
22 14 10
22 15 87
22 16 14
22 17 116
22 18 86
22 19 96
22 20 16
22 21 106
23 0 42
23 1 20
23 2 7
23 3 118
23 4 84
23 5 102
23 6 91
23 7 57
23 8 82
23 9 86
23 10 53
23 11 79
23 12 89
23 13 107
23 14 67
23 15 36
23 16 17
23 17 56
23 18 59
23 19 84
23 20 30
23 21 59
23 22 98
24 0 99
24 1 27
24 2 31
24 3 115
24 4 44
24 5 56
24 6 37
24 7 57
24 8 75
24 9 97
24 10 90
24 11 44
24 12 54
24 13 51
24 14 94
24 15 18
24 16 101
24 17 84
24 18 56
24 19 59
24 20 95
24 21 92
24 22 19
24 23 86
25 0 55
25 1 40
25 2 33
25 3 69
25 4 109
25 5 116
25 6 10
25 7 102
25 8 103
25 9 14
25 10 101
25 11 109
25 12 25
25 13 48
25 14 59
25 15 20
25 16 37
25 17 114
25 18 66
25 19 12
25 20 32
25 21 108
25 22 20
25 23 36
25 24 83
26 0 39
26 1 38
26 2 75
26 3 84
26 4 13
26 5 66
26 6 68
26 7 13
26 8 77
26 9 117
26 10 24
26 11 12
26 12 36
26 13 24
26 14 72
26 15 97
26 16 13
26 17 61
26 18 42
26 19 70
26 20 6
26 21 58
26 22 68
26 23 114
26 24 101
26 25 96
27 0 94
27 1 49
27 2 38
27 3 118
27 4 36
27 5 83
27 6 66
27 7 37
27 8 6
27 9 16
27 10 51
27 11 14
27 12 8
27 13 15
27 14 48
27 15 30
27 16 116
27 17 114
27 18 53
27 19 52
27 20 32
27 21 60
27 22 68
27 23 80
27 24 31
27 25 60
27 26 51
28 0 14
28 1 88
28 2 44
28 3 97
28 4 119
28 5 4
28 6 100
28 7 9
28 8 34
28 9 113
28 10 112
28 11 99
28 12 72
28 13 61
28 14 112
28 15 40
28 16 38
28 17 102
28 18 45
28 19 77
28 20 90
28 21 58
28 22 39
28 23 31
28 24 13
28 25 84
28 26 46
28 27 91
29 0 64
29 1 14
29 2 29
29 3 115
29 4 40
29 5 42
29 6 71
29 7 37
29 8 31
29 9 54
29 10 110
29 11 88
29 12 65
29 13 73
29 14 39
29 15 117
29 16 98
29 17 23
29 18 53
29 19 34
29 20 49
29 21 16
29 22 21
29 23 119
29 24 53
29 25 36
29 26 82
29 27 24
29 28 87
30 0 36
30 1 112
30 2 96
30 3 63
30 4 100
30 5 94
30 6 46
30 7 66
30 8 75
30 9 37
30 10 104
30 11 96
30 12 62
30 13 98
30 14 104
30 15 12
30 16 23
30 17 120
30 18 15
30 19 62
30 20 81
30 21 107
30 22 64
30 23 103
30 24 72
30 25 79
30 26 69
30 27 11
30 28 98
30 29 58
31 0 25
31 1 41
31 2 110
31 3 6
31 4 62
31 5 82
31 6 74
31 7 28
31 8 79
31 9 16
31 10 25
31 11 23
31 12 112
31 13 31
31 14 63
31 15 108
31 16 120
31 17 70
31 18 119
31 19 88
31 20 65
31 21 68
31 22 96
31 23 100
31 24 117
31 25 89
31 26 38
31 27 21
31 28 111
31 29 72
31 30 22
32 0 74
32 1 74
32 2 115
32 3 93
32 4 56
32 5 46
32 6 7
32 7 109
32 8 23
32 9 105
32 10 88
32 11 8
32 12 47
32 13 104
32 14 21
32 15 55
32 16 18
32 17 64
32 18 32
32 19 75
32 20 38
32 21 75
32 22 66
32 23 72
32 24 63
32 25 13
32 26 21
32 27 79
32 28 88
32 29 110
32 30 56
32 31 24
33 0 91
33 1 12
33 2 118
33 3 42
33 4 19
33 5 50
33 6 15
33 7 35
33 8 22
33 9 18
33 10 91
33 11 53
33 12 106
33 13 92
33 14 40
33 15 108
33 16 68
33 17 72
33 18 60
33 19 110
33 20 3
33 21 90
33 22 22
33 23 20
33 24 43
33 25 108
33 26 82
33 27 23
33 28 47
33 29 75
33 30 18
33 31 28
33 32 101
34 0 60
34 1 69
34 2 38
34 3 92
34 4 11
34 5 22
34 6 46
34 7 5
34 8 65
34 9 87
34 10 84
34 11 108
34 12 51
34 13 28
34 14 117
34 15 71
34 16 1
34 17 14
34 18 100
34 19 113
34 20 24
34 21 86
34 22 73
34 23 28
34 24 87
34 25 76
34 26 69
34 27 79
34 28 32
34 29 61
34 30 13
34 31 48
34 32 97
34 33 13
35 0 49
35 1 115
35 2 28
35 3 94
35 4 88
35 5 44
35 6 114
35 7 83
35 8 34
35 9 38
35 10 23
35 11 52
35 12 24
35 13 58
35 14 16
35 15 103
35 16 46
35 17 54
35 18 9
35 19 41
35 20 110
35 21 1
35 22 29
35 23 76
35 24 59
35 25 108
35 26 11
35 27 21
35 28 4
35 29 2
35 30 3
35 31 62
35 32 44
35 33 107
35 34 111
36 0 12
36 1 92
36 2 103
36 3 4
36 4 81
36 5 71
36 6 10
36 7 114
36 8 120
36 9 54
36 10 88
36 11 102
36 12 90
36 13 59
36 14 67
36 15 20
36 16 70
36 17 107
36 18 104
36 19 39
36 20 112
36 21 65
36 22 88
36 23 35
36 24 119
36 25 60
36 26 86
36 27 11
36 28 91
36 29 96
36 30 70
36 31 51
36 32 45
36 33 76
36 34 93
36 35 11
37 0 2
37 1 108
37 2 75
37 3 112
37 4 109
37 5 96
37 6 59
37 7 46
37 8 60
37 9 115
37 10 46
37 11 111
37 12 87
37 13 6
37 14 89
37 15 113
37 16 102
37 17 17
37 18 58
37 19 109
37 20 48
37 21 20
37 22 44
37 23 94
37 24 21
37 25 18
37 26 36
37 27 8
37 28 36
37 29 21
37 30 40
37 31 1
37 32 100
37 33 29
37 34 28
37 35 85
37 36 51
38 0 59
38 1 115
38 2 33
38 3 114
38 4 38
38 5 58
38 6 36
38 7 27
38 8 61
38 9 86
38 10 12
38 11 17
38 12 54
38 13 63
38 14 88
38 15 104
38 16 99
38 17 11
38 18 73
38 19 113
38 20 65
38 21 2
38 22 20
38 23 50
38 24 94
38 25 11
38 26 15
38 27 47
38 28 44
38 29 58
38 30 4
38 31 64
38 32 96
38 33 94
38 34 30
38 35 53
38 36 92
38 37 39
39 0 83
39 1 10
39 2 111
39 3 51
39 4 87
39 5 54
39 6 30
39 7 87
39 8 28
39 9 30
39 10 26
39 11 80
39 12 89
39 13 52
39 14 85
39 15 95
39 16 111
39 17 66
39 18 41
39 19 45
39 20 20
39 21 66
39 22 70
39 23 75
39 24 95
39 25 41
39 26 114
39 27 59
39 28 18
39 29 30
39 30 8
39 31 79
39 32 100
39 33 34
39 34 46
39 35 59
39 36 66
39 37 80
39 38 104
40 0 100
40 1 52
40 2 30
40 3 4
40 4 116
40 5 108
40 6 78
40 7 111
40 8 19
40 9 41
40 10 23
40 11 13
40 12 82
40 13 17
40 14 13
40 15 85
40 16 4
40 17 106
40 18 58
40 19 5
40 20 103
40 21 96
40 22 116
40 23 56
40 24 111
40 25 85
40 26 22
40 27 34
40 28 107
40 29 8
40 30 45
40 31 10
40 32 111
40 33 99
40 34 94
40 35 89
40 36 35
40 37 33
40 38 76
40 39 105
41 0 69
41 1 13
41 2 110
41 3 75
41 4 9
41 5 27
41 6 32
41 7 114
41 8 65
41 9 15
41 10 63
41 11 111
41 12 42
41 13 115
41 14 109
41 15 68
41 16 79
41 17 56
41 18 110
41 19 35
41 20 46
41 21 49
41 22 30
41 23 3
41 24 89
41 25 35
41 26 48
41 27 67
41 28 103
41 29 50
41 30 101
41 31 70
41 32 93
41 33 65
41 34 94
41 35 76
41 36 73
41 37 86
41 38 3
41 39 102
41 40 112
42 0 23
42 1 43
42 2 15
42 3 61
42 4 26
42 5 65
42 6 34
42 7 112
42 8 34
42 9 98
42 10 25
42 11 109
42 12 29
42 13 52
42 14 12
42 15 19
42 16 1
42 17 86
42 18 35
42 19 18
42 20 19
42 21 72
42 22 35
42 23 27
42 24 53
42 25 90
42 26 118
42 27 86
42 28 109
42 29 65
42 30 17
42 31 34
42 32 57
42 33 76
42 34 89
42 35 46
42 36 104
42 37 106
42 38 83
42 39 84
42 40 41
42 41 99
43 0 106
43 1 120
43 2 83
43 3 119
43 4 102
43 5 67
43 6 39
43 7 91
43 8 38
43 9 43
43 10 61
43 11 55
43 12 50
43 13 60
43 14 6
43 15 8
43 16 62
43 17 76
43 18 119
43 19 74
43 20 81
43 21 45
43 22 2
43 23 18
43 24 44
43 25 107
43 26 103
43 27 106
43 28 118
43 29 30
43 30 81
43 31 102
43 32 18
43 33 22
43 34 31
43 35 34
43 36 111
43 37 30
43 38 84
43 39 53
43 40 49
43 41 90
43 42 67
44 0 76
44 1 48
44 2 84
44 3 113
44 4 82
44 5 120
44 6 94
44 7 116
44 8 2
44 9 41
44 10 16
44 11 51
44 12 31
44 13 117
44 14 31
44 15 79
44 16 105
44 17 43
44 18 72
44 19 10
44 20 29
44 21 82
44 22 47
44 23 84
44 24 43
44 25 112
44 26 104
44 27 72
44 28 110
44 29 86
44 30 13
44 31 48
44 32 49
44 33 79
44 34 103
44 35 107
44 36 81
44 37 2
44 38 24
44 39 70
44 40 115
44 41 116
44 42 1
44 43 89
45 0 34
45 1 100
45 2 52
45 3 25
45 4 112
45 5 108
45 6 108
45 7 10
45 8 17
45 9 113
45 10 44
45 11 113
45 12 50
45 13 44
45 14 94
45 15 48
45 16 1
45 17 75
45 18 16
45 19 3
45 20 61
45 21 53
45 22 41
45 23 102
45 24 75
45 25 104
45 26 112
45 27 22
45 28 52
45 29 24
45 30 47
45 31 48
45 32 108
45 33 50
45 34 55
45 35 94
45 36 37
45 37 65
45 38 101
45 39 90
45 40 113
45 41 8
45 42 7
45 43 118
45 44 17
46 0 64
46 1 60
46 2 35
46 3 74
46 4 80
46 5 100
46 6 28
46 7 68
46 8 97
46 9 31
46 10 93
46 11 6
46 12 60
46 13 53
46 14 79
46 15 85
46 16 54
46 17 2
46 18 10
46 19 69
46 20 39
46 21 110
46 22 110
46 23 100
46 24 109
46 25 5
46 26 82
46 27 75
46 28 92
46 29 6
46 30 100
46 31 22
46 32 49
46 33 11
46 34 23
46 35 14
46 36 54
46 37 113
46 38 62
46 39 56
46 40 55
46 41 104
46 42 73
46 43 95
46 44 46
46 45 4
47 0 41
47 1 77
47 2 92
47 3 45
47 4 80
47 5 114
47 6 16
47 7 35
47 8 39
47 9 39
47 10 32
47 11 61
47 12 105
47 13 28
47 14 32
47 15 113
47 16 46
47 17 59
47 18 72
47 19 66
47 20 77
47 21 94
47 22 66
47 23 38
47 24 3
47 25 95
47 26 84
47 27 118
47 28 14
47 29 51
47 30 55
47 31 25
47 32 108
47 33 17
47 34 92
47 35 11
47 36 11
47 37 31
47 38 46
47 39 50
47 40 92
47 41 118
47 42 50
47 43 115
47 44 74
47 45 28
47 46 20
48 0 94
48 1 36
48 2 94
48 3 26
48 4 31
48 5 88
48 6 18
48 7 49
48 8 43
48 9 47
48 10 27
48 11 36
48 12 45
48 13 103
48 14 81
48 15 118
48 16 16
48 17 32
48 18 68
48 19 64
48 20 46
48 21 37
48 22 88
48 23 49
48 24 103
48 25 120
48 26 96
48 27 73
48 28 39
48 29 52
48 30 115
48 31 47
48 32 52
48 33 118
48 34 109
48 35 92
48 36 42
48 37 118
48 38 58
48 39 30
48 40 48
48 41 85
48 42 111
48 43 54
48 44 23
48 45 6
48 46 96
48 47 60
49 0 1
49 1 61
49 2 14
49 3 60
49 4 49
49 5 17
49 6 119
49 7 35
49 8 40
49 9 81
49 10 117
49 11 51
49 12 8
49 13 115
49 14 116
49 15 8
49 16 4
49 17 52
49 18 32
49 19 14
49 20 17
49 21 33
49 22 16
49 23 119
49 24 17
49 25 47
49 26 116
49 27 74
49 28 42
49 29 57
49 30 5
49 31 84
49 32 58
49 33 94
49 34 31
49 35 48
49 36 88
49 37 29
49 38 57
49 39 91
49 40 12
49 41 24
49 42 37
49 43 85
49 44 78
49 45 104
49 46 60
49 47 50
49 48 42
50 0 20
50 1 27
50 2 40
50 3 61
50 4 88
50 5 116
50 6 16
50 7 3
50 8 12
50 9 90
50 10 58
50 11 112
50 12 50
50 13 118
50 14 42
50 15 8
50 16 24
50 17 13
50 18 17
50 19 81
50 20 115
50 21 100
50 22 9
50 23 46
50 24 86
50 25 76
50 26 55
50 27 108
50 28 92
50 29 102
50 30 87
50 31 27
50 32 15
50 33 63
50 34 75
50 35 40
50 36 78
50 37 91
50 38 82
50 39 76
50 40 78
50 41 44
50 42 101
50 43 76
50 44 63
50 45 116
50 46 21
50 47 63
50 48 90
50 49 103
51 0 86
51 1 90
51 2 29
51 3 38
51 4 116
51 5 92
51 6 114
51 7 22
51 8 88
51 9 56
51 10 11
51 11 93
51 12 22
51 13 115
51 14 69
51 15 78
51 16 31
51 17 104
51 18 45
51 19 74
51 20 6
51 21 19
51 22 109
51 23 7
51 24 62
51 25 15
51 26 90
51 27 65
51 28 99
51 29 35
51 30 25
51 31 21
51 32 14
51 33 8
51 34 70
51 35 28
51 36 60
51 37 73
51 38 15
51 39 2
51 40 70
51 41 18
51 42 4
51 43 112
51 44 97
51 45 87
51 46 3
51 47 36
51 48 53
51 49 22
51 50 31
52 0 45
52 1 115
52 2 87
52 3 86
52 4 68
52 5 30
52 6 58
52 7 32
52 8 96
52 9 82
52 10 105
52 11 5
52 12 72
52 13 29
52 14 90
52 15 107
52 16 37
52 17 3
52 18 52
52 19 108
52 20 53
52 21 111
52 22 46
52 23 53
52 24 29
52 25 45
52 26 117
52 27 14
52 28 87
52 29 26
52 30 65
52 31 60
52 32 1
52 33 42
52 34 103
52 35 91
52 36 71
52 37 71
52 38 69
52 39 38
52 40 102
52 41 105
52 42 34
52 43 37
52 44 117
52 45 95
52 46 37
52 47 48
52 48 11
52 49 6
52 50 43
52 51 30
53 0 48
53 1 55
53 2 72
53 3 87
53 4 38
53 5 36
53 6 101
53 7 66
53 8 22
53 9 50
53 10 97
53 11 13
53 12 1
53 13 35
53 14 105
53 15 62
53 16 21
53 17 105
53 18 60
53 19 23
53 20 21
53 21 12
53 22 45
53 23 67
53 24 98
53 25 21
53 26 8
53 27 73
53 28 49
53 29 21
53 30 58
53 31 45
53 32 104
53 33 68
53 34 79
53 35 91
53 36 105
53 37 67
53 38 66
53 39 117
53 40 39
53 41 63
53 42 106
53 43 93
53 44 101
53 45 105
53 46 31
53 47 17
53 48 10
53 49 4
53 50 116
53 51 9
53 52 8
54 0 68
54 1 41
54 2 92
54 3 92
54 4 52
54 5 71
54 6 15
54 7 84
54 8 117
54 9 37
54 10 74
54 11 34
54 12 30
54 13 25
54 14 92
54 15 16
54 16 70
54 17 98
54 18 108
54 19 74
54 20 73
54 21 9
54 22 93
54 23 39
54 24 16
54 25 14
54 26 46
54 27 33
54 28 70
54 29 83
54 30 119
54 31 2
54 32 109
54 33 4
54 34 26
54 35 114
54 36 15
54 37 5
54 38 78
54 39 58
54 40 109
54 41 14
54 42 40
54 43 112
54 44 119
54 45 18
54 46 35
54 47 26
54 48 21
54 49 33
54 50 73
54 51 86
54 52 24
54 53 62
55 0 111
55 1 2
55 2 113
55 3 65
55 4 56
55 5 27
55 6 57
55 7 102
55 8 83
55 9 15
55 10 9
55 11 54
55 12 48
55 13 49
55 14 30
55 15 76
55 16 97
55 17 89
55 18 30
55 19 52
55 20 104
55 21 46
55 22 84
55 23 2
55 24 5
55 25 66
55 26 47
55 27 102
55 28 5
55 29 108
55 30 27
55 31 71
55 32 51
55 33 79
55 34 111
55 35 5
55 36 4
55 37 51
55 38 3
55 39 53
55 40 68
55 41 63
55 42 28
55 43 7
55 44 114
55 45 62
55 46 18
55 47 120
55 48 13
55 49 39
55 50 114
55 51 44
55 52 45
55 53 103
55 54 71
56 0 45
56 1 95
56 2 37
56 3 60
56 4 23
56 5 88
56 6 56
56 7 110
56 8 38
56 9 96
56 10 68
56 11 44
56 12 115
56 13 3
56 14 83
56 15 100
56 16 82
56 17 66
56 18 91
56 19 82
56 20 34
56 21 63
56 22 44
56 23 47
56 24 78
56 25 98
56 26 42
56 27 71
56 28 6
56 29 97
56 30 79
56 31 13
56 32 28
56 33 44
56 34 93
56 35 99
56 36 8
56 37 83
56 38 18
56 39 82
56 40 90
56 41 96
56 42 2
56 43 12
56 44 100
56 45 71
56 46 79
56 47 80
56 48 59
56 49 3
56 50 24
56 51 93
56 52 102
56 53 86
56 54 20
56 55 85
57 0 36
57 1 108
57 2 75
57 3 31
57 4 6
57 5 91
57 6 68
57 7 97
57 8 55
57 9 54
57 10 92
57 11 84
57 12 93
57 13 41
57 14 63
57 15 5
57 16 49
57 17 36
57 18 83
57 19 54
57 20 101
57 21 1
57 22 15
57 23 43
57 24 95
57 25 88
57 26 56
57 27 96
57 28 27
57 29 118
57 30 83
57 31 108
57 32 43
57 33 106
57 34 6
57 35 55
57 36 93
57 37 47
57 38 31
57 39 36
57 40 21
57 41 66
57 42 6
57 43 41
57 44 66
57 45 45
57 46 45
57 47 64
57 48 79
57 49 27
57 50 6
57 51 11
57 52 25
57 53 69
57 54 59
57 55 91
57 56 119
58 0 82
58 1 99
58 2 107
58 3 120
58 4 60
58 5 75
58 6 86
58 7 34
58 8 95
58 9 119
58 10 4
58 11 101
58 12 44
58 13 86
58 14 16
58 15 20
58 16 108
58 17 86
58 18 95
58 19 114
58 20 85
58 21 20
58 22 73
58 23 19
58 24 51
58 25 91
58 26 119
58 27 69
58 28 61
58 29 18
58 30 70
58 31 43
58 32 4
58 33 68
58 34 113
58 35 39
58 36 16
58 37 4
58 38 93
58 39 119
58 40 5
58 41 91
58 42 6
58 43 66
58 44 85
58 45 72
58 46 82
58 47 36
58 48 41
58 49 77
58 50 93
58 51 37
58 52 43
58 53 48
58 54 65
58 55 26
58 56 73
58 57 10
59 0 36
59 1 56
59 2 106
59 3 108
59 4 44
59 5 54
59 6 6
59 7 55
59 8 62
59 9 35
59 10 36
59 11 86
59 12 59
59 13 36
59 14 43
59 15 113
59 16 86
59 17 26
59 18 89
59 19 82
59 20 12
59 21 108
59 22 30
59 23 100
59 24 79
59 25 11
59 26 44
59 27 5
59 28 40
59 29 27
59 30 29
59 31 36
59 32 32
59 33 76
59 34 61
59 35 42
59 36 41
59 37 58
59 38 115
59 39 16
59 40 89
59 41 42
59 42 105
59 43 78
59 44 112
59 45 34
59 46 81
59 47 101
59 48 36
59 49 75
59 50 119
59 51 33
59 52 23
59 53 22
59 54 54
59 55 104
59 56 38
59 57 38
59 58 82
60 0 110
60 1 75
60 2 7
60 3 54
60 4 12
60 5 17
60 6 59
60 7 101
60 8 40
60 9 42
60 10 93
60 11 105
60 12 56
60 13 26
60 14 86
60 15 15
60 16 45
60 17 94
60 18 86
60 19 3
60 20 108
60 21 119
60 22 54
60 23 9
60 24 70
60 25 38
60 26 80
60 27 10
60 28 37
60 29 6
60 30 119
60 31 13
60 32 15
60 33 73
60 34 59
60 35 111
60 36 120
60 37 7
60 38 63
60 39 106
60 40 36
60 41 93
60 42 14
60 43 85
60 44 4
60 45 113
60 46 90
60 47 71
60 48 48
60 49 24
60 50 56
60 51 59
60 52 7
60 53 105
60 54 71
60 55 76
60 56 18
60 57 39
60 58 66
60 59 65
61 0 10
61 1 62
61 2 56
61 3 21
61 4 53
61 5 108
61 6 69
61 7 100
61 8 89
61 9 118
61 10 84
61 11 16
61 12 87
61 13 47
61 14 28
61 15 10
61 16 57
61 17 21
61 18 51
61 19 2
61 20 74
61 21 93
61 22 107
61 23 6
61 24 24
61 25 93
61 26 79
61 27 24
61 28 29
61 29 51
61 30 17
61 31 48
61 32 108
61 33 70
61 34 108
61 35 4
61 36 89
61 37 59
61 38 11
61 39 86
61 40 84
61 41 73
61 42 102
61 43 50
61 44 64
61 45 39
61 46 14
61 47 25
61 48 112
61 49 48
61 50 79
61 51 27
61 52 86
61 53 44
61 54 33
61 55 65
61 56 67
61 57 24
61 58 39
61 59 18
61 60 33
62 0 15
62 1 29
62 2 30
62 3 79
62 4 36
62 5 74
62 6 49
62 7 45
62 8 76
62 9 111
62 10 48
62 11 37
62 12 27
62 13 12
62 14 103
62 15 57
62 16 112
62 17 58
62 18 99
62 19 51
62 20 22
62 21 94
62 22 6
62 23 69
62 24 8
62 25 24
62 26 63
62 27 12
62 28 27
62 29 92
62 30 70
62 31 24
62 32 14
62 33 70
62 34 82
62 35 105
62 36 88
62 37 62
62 38 56
62 39 70
62 40 89
62 41 54
62 42 112
62 43 50
62 44 81
62 45 33
62 46 92
62 47 67
62 48 88
62 49 22
62 50 10
62 51 33
62 52 12
62 53 110
62 54 26
62 55 80
62 56 13
62 57 116
62 58 24
62 59 113
62 60 50
62 61 5
63 0 28
63 1 112
63 2 24
63 3 27
63 4 19
63 5 4
63 6 113
63 7 64
63 8 89
63 9 112
63 10 36
63 11 119
63 12 50
63 13 91
63 14 28
63 15 33
63 16 62
63 17 55
63 18 32
63 19 69
63 20 56
63 21 61
63 22 78
63 23 43
63 24 35
63 25 56
63 26 85
63 27 1
63 28 42
63 29 92
63 30 88
63 31 62
63 32 43
63 33 89
63 34 19
63 35 111
63 36 106
63 37 6
63 38 101
63 39 117
63 40 4
63 41 81
63 42 93
63 43 24
63 44 118
63 45 38
63 46 61
63 47 62
63 48 60
63 49 105
63 50 5
63 51 112
63 52 81
63 53 33
63 54 16
63 55 5
63 56 64
63 57 106
63 58 6
63 59 34
63 60 23
63 61 24
63 62 52
64 0 32
64 1 83
64 2 78
64 3 84
64 4 72
64 5 96
64 6 78
64 7 13
64 8 116
64 9 38
64 10 24
64 11 62
64 12 54
64 13 83
64 14 88
64 15 43
64 16 41
64 17 119
64 18 2
64 19 53
64 20 109
64 21 67
64 22 28
64 23 71
64 24 107
64 25 101
64 26 75
64 27 17
64 28 83
64 29 36
64 30 31
64 31 114
64 32 57
64 33 35
64 34 103
64 35 41
64 36 84
64 37 47
64 38 93
64 39 14
64 40 102
64 41 76
64 42 48
64 43 82
64 44 32
64 45 45
64 46 88
64 47 98
64 48 46
64 49 9
64 50 113
64 51 73
64 52 102
64 53 1
64 54 116
64 55 83
64 56 31
64 57 79
64 58 75
64 59 90
64 60 58
64 61 65
64 62 87
64 63 104
65 0 101
65 1 59
65 2 18
65 3 39
65 4 73
65 5 81
65 6 1
65 7 96
65 8 70
65 9 2
65 10 13
65 11 13
65 12 86
65 13 76
65 14 61
65 15 114
65 16 2
65 17 68
65 18 118
65 19 42
65 20 34
65 21 104
65 22 47
65 23 77
65 24 38
65 25 100
65 26 55
65 27 32
65 28 78
65 29 114
65 30 67
65 31 89
65 32 1
65 33 94
65 34 34
65 35 63
65 36 10
65 37 7
65 38 114
65 39 74
65 40 19
65 41 48
65 42 57
65 43 30
65 44 97
65 45 81
65 46 19
65 47 99
65 48 88
65 49 103
65 50 22
65 51 9
65 52 34
65 53 101
65 54 18
65 55 12
65 56 57
65 57 71
65 58 88
65 59 80
65 60 40
65 61 77
65 62 40
65 63 11
65 64 112
66 0 89
66 1 48
66 2 40
66 3 74
66 4 31
66 5 77
66 6 48
66 7 120
66 8 62
66 9 50
66 10 7
66 11 113
66 12 30
66 13 5
66 14 42
66 15 68
66 16 110
66 17 79
66 18 79
66 19 106
66 20 46
66 21 4
66 22 7
66 23 93
66 24 48
66 25 59
66 26 47
66 27 30
66 28 86
66 29 69
66 30 27
66 31 39
66 32 109
66 33 54
66 34 73
66 35 105
66 36 24
66 37 117
66 38 35
66 39 44
66 40 94
66 41 118
66 42 110
66 43 30
66 44 65
66 45 29
66 46 29
66 47 59
66 48 12
66 49 2
66 50 46
66 51 58
66 52 76
66 53 48
66 54 94
66 55 36
66 56 106
66 57 77
66 58 27
66 59 11
66 60 23
66 61 30
66 62 26
66 63 2
66 64 86
66 65 69
67 0 63
67 1 13
67 2 114
67 3 12
67 4 78
67 5 92
67 6 30
67 7 93
67 8 63
67 9 8
67 10 12
67 11 112
67 12 106
67 13 100
67 14 15
67 15 95
67 16 100
67 17 32
67 18 36
67 19 64
67 20 84
67 21 70
67 22 86
67 23 41
67 24 30
67 25 108
67 26 103
67 27 13
67 28 91
67 29 51
67 30 44
67 31 64
67 32 66
67 33 62
67 34 70
67 35 99
67 36 112
67 37 44
67 38 57
67 39 42
67 40 98
67 41 32
67 42 86
67 43 96
67 44 32
67 45 80
67 46 113
67 47 98
67 48 96
67 49 69
67 50 67
67 51 12
67 52 35
67 53 2
67 54 67
67 55 49
67 56 88
67 57 64
67 58 29
67 59 14
67 60 12
67 61 107
67 62 95
67 63 10
67 64 33
67 65 85
67 66 15
68 0 1
68 1 78
68 2 47
68 3 52
68 4 76
68 5 103
68 6 91
68 7 41
68 8 54
68 9 104
68 10 27
68 11 78
68 12 77
68 13 20
68 14 43
68 15 119
68 16 63
68 17 5
68 18 31
68 19 114
68 20 87
68 21 2
68 22 120
68 23 55
68 24 105
68 25 113
68 26 17
68 27 61
68 28 51
68 29 44
68 30 7
68 31 53
68 32 118
68 33 25
68 34 63
68 35 53
68 36 40
68 37 91
68 38 95
68 39 2
68 40 98
68 41 69
68 42 38
68 43 51
68 44 114
68 45 104
68 46 66
68 47 57
68 48 49
68 49 35
68 50 76
68 51 24
68 52 80
68 53 54
68 54 111
68 55 20
68 56 118
68 57 39
68 58 80
68 59 65
68 60 67
68 61 57
68 62 20
68 63 15
68 64 118
68 65 105
68 66 38
68 67 6
69 0 39
69 1 69
69 2 54
69 3 88
69 4 65
69 5 72
69 6 86
69 7 45
69 8 111
69 9 88
69 10 58
69 11 9
69 12 112
69 13 22
69 14 62
69 15 37
69 16 55
69 17 34
69 18 112
69 19 53
69 20 60
69 21 71
69 22 16
69 23 39
69 24 89
69 25 13
69 26 24
69 27 54
69 28 59
69 29 77
69 30 73
69 31 112
69 32 9
69 33 27
69 34 120
69 35 44
69 36 50
69 37 42
69 38 69
69 39 59
69 40 87
69 41 53
69 42 35
69 43 117
69 44 32
69 45 66
69 46 97
69 47 107
69 48 78
69 49 68
69 50 7
69 51 82
69 52 36
69 53 26
69 54 93
69 55 77
69 56 102
69 57 71
69 58 44
69 59 29
69 60 85
69 61 18
69 62 110
69 63 100
69 64 3
69 65 44
69 66 40
69 67 70
69 68 93
